
Gurobi 11.0.3 (linux64) logging started Sat Nov 23 19:43:11 2024

Set parameter LogFile to value "/home/yihong/Coding/OR_SUC/SUC_results_bigM100000_thread4/case24_ieee_rts_theta0.1_epsilon0.025_gurobi_seed640000_num_gen100_N_WDR50_load_scaling_factor1_exact_T24quadra_cost.txt"
Set parameter TimeLimit to value 3600
Gurobi Optimizer version 11.0.3 build v11.0.3rc0 (linux64 - "Ubuntu 20.04.6 LTS")

CPU model: AMD EPYC 7532 32-Core Processor, instruction set [SSE2|AVX|AVX2]
Thread count: 64 physical cores, 128 logical processors, using up to 4 threads

Optimize a model with 50071 rows, 29861 columns and 508398 nonzeros
Model fingerprint: 0x1d788a46
Model has 2400 quadratic constraints
Variable types: 27411 continuous, 2450 integer (2450 binary)
Coefficient statistics:
  Matrix range     [3e-04, 1e+05]
  QMatrix range    [2e-03, 8e-03]
  QLMatrix range   [7e-02, 6e+01]
  Objective range  [1e+00, 1e+00]
  Bounds range     [1e+00, 1e+00]
  RHS range        [1e+00, 1e+05]
Presolve removed 40356 rows and 12950 columns
Presolve time: 0.18s
Presolved: 9715 rows, 16911 columns, 51667 nonzeros
Presolved model has 2400 quadratic constraint(s)
Variable types: 14477 continuous, 2434 integer (2434 binary)

Root relaxation: objective 3.461833e+04, 7298 iterations, 0.16 seconds (0.22 work units)

    Nodes    |    Current Node    |     Objective Bounds      |     Work
 Expl Unexpl |  Obj  Depth IntInf | Incumbent    BestBd   Gap | It/Node Time

     0     0 34618.3329    0    2          - 34618.3329      -     -    0s
     0     0 311179.342    0  835          - 311179.342      -     -    1s
     0     0 326553.264    0  843          - 326553.264      -     -    1s
     0     0 620256.138    0  809          - 620256.138      -     -    1s
     0     0 620324.814    0  505          - 620324.814      -     -    2s
     0     0 620728.243    0  393          - 620728.243      -     -    2s
     0     0 620729.072    0  393          - 620729.072      -     -    2s
     0     0 620872.827    0  391          - 620872.827      -     -    2s
     0     0 620873.893    0  391          - 620873.893      -     -    2s
     0     2 620873.893    0  391          - 620873.893      -     -    2s
   456   605 621295.218  130  130          - 620895.664      -  27.1    5s
H  639   331                    621296.54956 620896.658  0.06%  20.4    5s
*  639   331             213    621296.54956 620896.658  0.06%  20.4    5s

Cutting planes:
  Gomory: 6
  Implied bound: 345
  MIR: 84
  Flow cover: 302
  Relax-and-lift: 4
  PSD: 1

Explored 743 nodes (35606 simplex iterations) in 6.11 seconds (6.69 work units)
Thread count was 4 (of 128 available processors)

Solution count 2: 621297 621297 

Optimal solution found (tolerance 1.00e-03)
Warning: max constraint violation (4.1531e-08) exceeds tolerance
Best objective 6.212965459842e+05, best bound 6.208966578396e+05, gap 0.0644%
